Maximize
  6 C6 + 6 C7 + 6 C8 + 6 C9 + 6 C10 + 6 C11 + 6 C12 + 6 C13 + 6 C14 + 6 C15
   + 6 C16 + 6 C17 + 7 C18 + 7 C19 + 7 C20 + 7 C21 + 7 C22 + 7 C23 + 7 C24
   + 7 C25 + 7 C26 + 7 C27 + 7 C28 + 7 C29 + 6 C42 + 6 C43 + 6 C44 + 6 C45
   + 6 C46 + 6 C47 + 6 C48 + 6 C49 + 6 C50 + 6 C51 + 6 C52 + 6 C53 + 7 C54
   + 7 C55 + 7 C56 + 7 C57 + 7 C58 + 7 C59 + 7 C60 + 7 C61 + 7 C62 + 7 C63
   + 7 C64 + 7 C65 + 6 C78 + 6 C79 + 6 C80 + 6 C81 + 6 C82 + 6 C83 + 6 C84
   + 6 C85 + 6 C86 + 6 C87 + 6 C88 + 6 C89 + 7 C90 + 7 C91 + 7 C92 + 7 C93
   + 7 C94 + 7 C95 + 7 C96 + 7 C97 + 7 C98 + 7 C99 + 7 C100 + 7 C101
Subject To
 R0: C0 + C1 + C2 + C3 + C4 + C5 >= 1
 R1: C5 + C11 + C17 + C23 + C29 + C35 >= 1
 R2: - C0 - C1 - C2 - C3 - C4 - C5 >= 1
 R3: - C5 - C11 - C17 - C23 - C29 - C35 >= 1
 R4: C36 + C37 + C38 + C39 + C40 + C41 >= 1
 R5: C41 + C47 + C53 + C59 + C65 + C71 >= 1
 R6: - C36 - C37 - C38 - C39 - C40 - C41 >= 1
 R7: - C41 - C47 - C53 - C59 - C65 - C71 >= 1
 R8: C72 + C73 + C74 + C75 + C76 + C77 >= 1
 R9: C77 + C83 + C89 + C95 + C101 + C107 >= 1
 R10: - C72 - C73 - C74 - C75 - C76 - C77 >= 1
 R11: - C77 - C83 - C89 - C95 - C101 - C107 >= 1
 R12: - 1e+06 C0 + C108 - C126 >= -1e+06
 R13: - 1e+06 C1 + C109 - C126 >= -1e+06
 R14: - 1e+06 C2 + C110 - C126 >= -1e+06
 R15: - 1e+06 C3 + C111 - C126 >= -1e+06
 R16: - 1e+06 C4 + C112 - C126 >= -1e+06
 R17: - 1e+06 C5 + C113 - C126 >= -1e+06
 R18: - 1e+06 C6 + C108 - C127 >= -1e+06
 R19: - 1e+06 C7 + C109 - C127 >= -1e+06
 R20: - 1e+06 C8 + C110 - C127 >= -1e+06
 R21: - 1e+06 C9 + C111 - C127 >= -1e+06
 R22: - 1e+06 C10 + C112 - C127 >= -1e+06
 R23: - 1e+06 C11 + C113 - C127 >= -1e+06
 R24: - 1e+06 C12 + C108 - C128 >= -1e+06
 R25: - 1e+06 C13 + C109 - C128 >= -1e+06
 R26: - 1e+06 C14 + C110 - C128 >= -1e+06
 R27: - 1e+06 C15 + C111 - C128 >= -1e+06
 R28: - 1e+06 C16 + C112 - C128 >= -1e+06
 R29: - 1e+06 C17 + C113 - C128 >= -1e+06
 R30: - 1e+06 C18 + C108 - C129 >= -1e+06
 R31: - 1e+06 C19 + C109 - C129 >= -1e+06
 R32: - 1e+06 C20 + C110 - C129 >= -1e+06
 R33: - 1e+06 C21 + C111 - C129 >= -1e+06
 R34: - 1e+06 C22 + C112 - C129 >= -1e+06
 R35: - 1e+06 C23 + C113 - C129 >= -1e+06
 R36: - 1e+06 C24 + C108 - C130 >= -1e+06
 R37: - 1e+06 C25 + C109 - C130 >= -1e+06
 R38: - 1e+06 C26 + C110 - C130 >= -1e+06
 R39: - 1e+06 C27 + C111 - C130 >= -1e+06
 R40: - 1e+06 C28 + C112 - C130 >= -1e+06
 R41: - 1e+06 C29 + C113 - C130 >= -1e+06
 R42: - 1e+06 C30 + C108 - C131 >= -1e+06
 R43: - 1e+06 C31 + C109 - C131 >= -1e+06
 R44: - 1e+06 C32 + C110 - C131 >= -1e+06
 R45: - 1e+06 C33 + C111 - C131 >= -1e+06
 R46: - 1e+06 C34 + C112 - C131 >= -1e+06
 R47: - 1e+06 C35 + C113 - C131 >= -1e+06
 R48: - 1e+06 C36 + C114 - C132 >= -1e+06
 R49: - 1e+06 C37 + C115 - C132 >= -1e+06
 R50: - 1e+06 C38 + C116 - C132 >= -1e+06
 R51: - 1e+06 C39 + C117 - C132 >= -1e+06
 R52: - 1e+06 C40 + C118 - C132 >= -1e+06
 R53: - 1e+06 C41 + C119 - C132 >= -1e+06
 R54: - 1e+06 C42 + C114 - C133 >= -1e+06
 R55: - 1e+06 C43 + C115 - C133 >= -1e+06
 R56: - 1e+06 C44 + C116 - C133 >= -1e+06
 R57: - 1e+06 C45 + C117 - C133 >= -1e+06
 R58: - 1e+06 C46 + C118 - C133 >= -1e+06
 R59: - 1e+06 C47 + C119 - C133 >= -1e+06
 R60: - 1e+06 C48 + C114 - C134 >= -1e+06
 R61: - 1e+06 C49 + C115 - C134 >= -1e+06
 R62: - 1e+06 C50 + C116 - C134 >= -1e+06
 R63: - 1e+06 C51 + C117 - C134 >= -1e+06
 R64: - 1e+06 C52 + C118 - C134 >= -1e+06
 R65: - 1e+06 C53 + C119 - C134 >= -1e+06
 R66: - 1e+06 C54 + C114 - C135 >= -1e+06
 R67: - 1e+06 C55 + C115 - C135 >= -1e+06
 R68: - 1e+06 C56 + C116 - C135 >= -1e+06
 R69: - 1e+06 C57 + C117 - C135 >= -1e+06
 R70: - 1e+06 C58 + C118 - C135 >= -1e+06
 R71: - 1e+06 C59 + C119 - C135 >= -1e+06
 R72: - 1e+06 C60 + C114 - C136 >= -1e+06
 R73: - 1e+06 C61 + C115 - C136 >= -1e+06
 R74: - 1e+06 C62 + C116 - C136 >= -1e+06
 R75: - 1e+06 C63 + C117 - C136 >= -1e+06
 R76: - 1e+06 C64 + C118 - C136 >= -1e+06
 R77: - 1e+06 C65 + C119 - C136 >= -1e+06
 R78: - 1e+06 C66 + C114 - C137 >= -1e+06
 R79: - 1e+06 C67 + C115 - C137 >= -1e+06
 R80: - 1e+06 C68 + C116 - C137 >= -1e+06
 R81: - 1e+06 C69 + C117 - C137 >= -1e+06
 R82: - 1e+06 C70 + C118 - C137 >= -1e+06
 R83: - 1e+06 C71 + C119 - C137 >= -1e+06
 R84: - 1e+06 C72 + C120 - C138 >= -1e+06
 R85: - 1e+06 C73 + C121 - C138 >= -1e+06
 R86: - 1e+06 C74 + C122 - C138 >= -1e+06
 R87: - 1e+06 C75 + C123 - C138 >= -1e+06
 R88: - 1e+06 C76 + C124 - C138 >= -1e+06
 R89: - 1e+06 C77 + C125 - C138 >= -1e+06
 R90: - 1e+06 C78 + C120 - C139 >= -1e+06
 R91: - 1e+06 C79 + C121 - C139 >= -1e+06
 R92: - 1e+06 C80 + C122 - C139 >= -1e+06
 R93: - 1e+06 C81 + C123 - C139 >= -1e+06
 R94: - 1e+06 C82 + C124 - C139 >= -1e+06
 R95: - 1e+06 C83 + C125 - C139 >= -1e+06
 R96: - 1e+06 C84 + C120 - C140 >= -1e+06
 R97: - 1e+06 C85 + C121 - C140 >= -1e+06
 R98: - 1e+06 C86 + C122 - C140 >= -1e+06
 R99: - 1e+06 C87 + C123 - C140 >= -1e+06
 R100: - 1e+06 C88 + C124 - C140 >= -1e+06
 R101: - 1e+06 C89 + C125 - C140 >= -1e+06
 R102: - 1e+06 C90 + C120 - C141 >= -1e+06
 R103: - 1e+06 C91 + C121 - C141 >= -1e+06
 R104: - 1e+06 C92 + C122 - C141 >= -1e+06
 R105: - 1e+06 C93 + C123 - C141 >= -1e+06
 R106: - 1e+06 C94 + C124 - C141 >= -1e+06
 R107: - 1e+06 C95 + C125 - C141 >= -1e+06
 R108: - 1e+06 C96 + C120 - C142 >= -1e+06
 R109: - 1e+06 C97 + C121 - C142 >= -1e+06
 R110: - 1e+06 C98 + C122 - C142 >= -1e+06
 R111: - 1e+06 C99 + C123 - C142 >= -1e+06
 R112: - 1e+06 C100 + C124 - C142 >= -1e+06
 R113: - 1e+06 C101 + C125 - C142 >= -1e+06
 R114: - 1e+06 C102 + C120 - C143 >= -1e+06
 R115: - 1e+06 C103 + C121 - C143 >= -1e+06
 R116: - 1e+06 C104 + C122 - C143 >= -1e+06
 R117: - 1e+06 C105 + C123 - C143 >= -1e+06
 R118: - 1e+06 C106 + C124 - C143 >= -1e+06
 R119: - 1e+06 C107 + C125 - C143 >= -1e+06
 R120: C108 >= -0
 R121: - C126 >= -1e+06
 R122: C109 >= -0
 R123: - C127 >= -12
 R124: C110 >= 4
 R125: - C128 >= -16
 R126: C111 >= 2
 R127: - C129 >= -6
 R128: C112 >= 6
 R129: - C130 >= -10
 R130: C113 >= -0
 R131: - C131 >= -1e+06
 R132: C114 >= -0
 R133: - C132 >= -1e+06
 R134: C115 >= -0
 R135: - C133 >= -12
 R136: C116 >= 4
 R137: - C134 >= -16
 R138: C117 >= 2
 R139: - C135 >= -6
 R140: C118 >= 6
 R141: - C136 >= -10
 R142: C119 >= -0
 R143: - C137 >= -1e+06
 R144: C120 >= -0
 R145: - C138 >= -1e+06
 R146: C121 >= -0
 R147: - C139 >= -12
 R148: C122 >= 4
 R149: - C140 >= -16
 R150: C123 >= 2
 R151: - C141 >= -6
 R152: C124 >= 6
 R153: - C142 >= -10
 R154: C125 >= -0
 R155: - C143 >= -1e+06
 R156: C126 >= -0
 R157: - C113 >= -18
 R158: C132 >= 1
 R159: - C119 >= -13
 R160: C138 >= 3
 R161: - C125 >= -15
 R162: C108 - C126 >= -0
 R163: - C108 + C126 >= -0
 R164: 4 C6 + 4 C7 + 4 C8 + 4 C9 + 4 C10 + 4 C11 + C109 - C127 >= -0
 R165: - 4 C6 - 4 C7 - 4 C8 - 4 C9 - 4 C10 - 4 C11 - C109 + C127 >= -0
 R166: 4 C12 + 4 C13 + 4 C14 + 4 C15 + 4 C16 + 4 C17 + C110 - C128 >= -0
 R167: - 4 C12 - 4 C13 - 4 C14 - 4 C15 - 4 C16 - 4 C17 - C110 + C128 >= -0
 R168: C18 + C19 + C20 + C21 + C22 + C23 + C111 - C129 >= -0
 R169: - C18 - C19 - C20 - C21 - C22 - C23 - C111 + C129 >= -0
 R170: C24 + C25 + C26 + C27 + C28 + C29 + C112 - C130 >= -0
 R171: - C24 - C25 - C26 - C27 - C28 - C29 - C112 + C130 >= -0
 R172: C113 - C131 >= -0
 R173: - C113 + C131 >= -0
 R174: C114 - C132 >= -0
 R175: - C114 + C132 >= -0
 R176: 4 C42 + 4 C43 + 4 C44 + 4 C45 + 4 C46 + 4 C47 + C115 - C133 >= -0
 R177: - 4 C42 - 4 C43 - 4 C44 - 4 C45 - 4 C46 - 4 C47 - C115 + C133 >= -0
 R178: 4 C48 + 4 C49 + 4 C50 + 4 C51 + 4 C52 + 4 C53 + C116 - C134 >= -0
 R179: - 4 C48 - 4 C49 - 4 C50 - 4 C51 - 4 C52 - 4 C53 - C116 + C134 >= -0
 R180: C54 + C55 + C56 + C57 + C58 + C59 + C117 - C135 >= -0
 R181: - C54 - C55 - C56 - C57 - C58 - C59 - C117 + C135 >= -0
 R182: C60 + C61 + C62 + C63 + C64 + C65 + C118 - C136 >= -0
 R183: - C60 - C61 - C62 - C63 - C64 - C65 - C118 + C136 >= -0
 R184: C119 - C137 >= -0
 R185: - C119 + C137 >= -0
 R186: C120 - C138 >= -0
 R187: - C120 + C138 >= -0
 R188: 4 C78 + 4 C79 + 4 C80 + 4 C81 + 4 C82 + 4 C83 + C121 - C139 >= -0
 R189: - 4 C78 - 4 C79 - 4 C80 - 4 C81 - 4 C82 - 4 C83 - C121 + C139 >= -0
 R190: 4 C84 + 4 C85 + 4 C86 + 4 C87 + 4 C88 + 4 C89 + C122 - C140 >= -0
 R191: - 4 C84 - 4 C85 - 4 C86 - 4 C87 - 4 C88 - 4 C89 - C122 + C140 >= -0
 R192: C90 + C91 + C92 + C93 + C94 + C95 + C123 - C141 >= -0
 R193: - C90 - C91 - C92 - C93 - C94 - C95 - C123 + C141 >= -0
 R194: C96 + C97 + C98 + C99 + C100 + C101 + C124 - C142 >= -0
 R195: - C96 - C97 - C98 - C99 - C100 - C101 - C124 + C142 >= -0
 R196: C125 - C143 >= -0
 R197: - C125 + C143 >= -0
 R198: C0 + C6 + C12 + C18 + C24 + C30 + C36 + C42 + C48 + C54 + C60 + C66
   + C72 + C78 + C84 + C90 + C96 + C102 >= -0
 R199: - C0 - C6 - C12 - C18 - C24 - C30 - C36 - C42 - C48 - C54 - C60
   - C66 - C72 - C78 - C84 - C90 - C96 - C102 >= -0
 R200: C30 + C31 + C32 + C33 + C34 + C35 + C60 + C61 + C62 + C63 + C64
   + C65 + C90 + C91 + C92 + C93 + C94 + C95 >= -0
 R201: - C30 - C31 - C32 - C33 - C34 - C35 - C60 - C61 - C62 - C63 - C64
   - C65 - C90 - C91 - C92 - C93 - C94 - C95 >= -0
 R202: C0 - C1 - C2 - C3 - C4 - C5 + C6 + C12 + C18 + C24 + C30 >= -0
 R203: - C0 + C1 + C2 + C3 + C4 + C5 - C6 - C12 - C18 - C24 - C30 >= -0
 R204: C1 - C6 + C7 - C8 - C9 - C10 - C11 + C13 + C19 + C25 + C31 >= -0
 R205: - C1 + C6 - C7 + C8 + C9 + C10 + C11 - C13 - C19 - C25 - C31 >= -0
 R206: C2 + C8 - C12 - C13 + C14 - C15 - C16 - C17 + C20 + C26 + C32 >= -0
 R207: - C2 - C8 + C12 + C13 - C14 + C15 + C16 + C17 - C20 - C26 - C32
   >= -0
 R208: C3 + C9 + C15 - C18 - C19 - C20 + C21 - C22 - C23 + C27 + C33 >= -0
 R209: - C3 - C9 - C15 + C18 + C19 + C20 - C21 + C22 + C23 - C27 - C33
   >= -0
 R210: C4 + C10 + C16 + C22 - C24 - C25 - C26 - C27 + C28 - C29 + C34
   >= -0
 R211: - C4 - C10 - C16 - C22 + C24 + C25 + C26 + C27 - C28 + C29 - C34
   >= -0
 R212: C5 + C11 + C17 + C23 + C29 - C30 - C31 - C32 - C33 - C34 + C35
   >= -0
 R213: - C5 - C11 - C17 - C23 - C29 + C30 + C31 + C32 + C33 + C34 - C35
   >= -0
 R214: C36 - C37 - C38 - C39 - C40 - C41 + C42 + C48 + C54 + C60 + C66
   >= -0
 R215: - C36 + C37 + C38 + C39 + C40 + C41 - C42 - C48 - C54 - C60 - C66
   >= -0
 R216: C37 - C42 + C43 - C44 - C45 - C46 - C47 + C49 + C55 + C61 + C67
   >= -0
 R217: - C37 + C42 - C43 + C44 + C45 + C46 + C47 - C49 - C55 - C61 - C67
   >= -0
 R218: C38 + C44 - C48 - C49 + C50 - C51 - C52 - C53 + C56 + C62 + C68
   >= -0
 R219: - C38 - C44 + C48 + C49 - C50 + C51 + C52 + C53 - C56 - C62 - C68
   >= -0
 R220: C39 + C45 + C51 - C54 - C55 - C56 + C57 - C58 - C59 + C63 + C69
   >= -0
 R221: - C39 - C45 - C51 + C54 + C55 + C56 - C57 + C58 + C59 - C63 - C69
   >= -0
 R222: C40 + C46 + C52 + C58 - C60 - C61 - C62 - C63 + C64 - C65 + C70
   >= -0
 R223: - C40 - C46 - C52 - C58 + C60 + C61 + C62 + C63 - C64 + C65 - C70
   >= -0
 R224: C41 + C47 + C53 + C59 + C65 - C66 - C67 - C68 - C69 - C70 + C71
   >= -0
 R225: - C41 - C47 - C53 - C59 - C65 + C66 + C67 + C68 + C69 + C70 - C71
   >= -0
 R226: C72 - C73 - C74 - C75 - C76 - C77 + C78 + C84 + C90 + C96 + C102
   >= -0
 R227: - C72 + C73 + C74 + C75 + C76 + C77 - C78 - C84 - C90 - C96 - C102
   >= -0
 R228: C73 - C78 + C79 - C80 - C81 - C82 - C83 + C85 + C91 + C97 + C103
   >= -0
 R229: - C73 + C78 - C79 + C80 + C81 + C82 + C83 - C85 - C91 - C97 - C103
   >= -0
 R230: C74 + C80 - C84 - C85 + C86 - C87 - C88 - C89 + C92 + C98 + C104
   >= -0
 R231: - C74 - C80 + C84 + C85 - C86 + C87 + C88 + C89 - C92 - C98 - C104
   >= -0
 R232: C75 + C81 + C87 - C90 - C91 - C92 + C93 - C94 - C95 + C99 + C105
   >= -0
 R233: - C75 - C81 - C87 + C90 + C91 + C92 - C93 + C94 + C95 - C99 - C105
   >= -0
 R234: C76 + C82 + C88 + C94 - C96 - C97 - C98 - C99 + C100 - C101 + C106
   >= -0
 R235: - C76 - C82 - C88 - C94 + C96 + C97 + C98 + C99 - C100 + C101 - C106
   >= -0
 R236: C77 + C83 + C89 + C95 + C101 - C102 - C103 - C104 - C105 - C106
   + C107 >= -0
 R237: - C77 - C83 - C89 - C95 - C101 + C102 + C103 + C104 + C105 + C106
   - C107 >= -0
 R238: - C0 - C1 - C2 - C3 - C4 - C5 - C36 - C37 - C38 - C39 - C40 - C41
   - C72 - C73 - C74 - C75 - C76 - C77 >= -1
 R239: - C6 - C7 - C8 - C9 - C10 - C11 - C42 - C43 - C44 - C45 - C46 - C47
   - C78 - C79 - C80 - C81 - C82 - C83 >= -1
 R240: - C12 - C13 - C14 - C15 - C16 - C17 - C48 - C49 - C50 - C51 - C52
   - C53 - C84 - C85 - C86 - C87 - C88 - C89 >= -1
 R241: - C18 - C19 - C20 - C21 - C22 - C23 - C54 - C55 - C56 - C57 - C58
   - C59 - C90 - C91 - C92 - C93 - C94 - C95 >= -1
 R242: - C24 - C25 - C26 - C27 - C28 - C29 - C60 - C61 - C62 - C63 - C64
   - C65 - C96 - C97 - C98 - C99 - C100 - C101 >= -1
 R243: - C30 - C31 - C32 - C33 - C34 - C35 - C66 - C67 - C68 - C69 - C70
   - C71 - C102 - C103 - C104 - C105 - C106 - C107 >= -1
 R244: - C0 - C1 - C2 - C3 - C4 - C5 >= -1
 R245: - C6 - C7 - C8 - C9 - C10 - C11 >= -1
 R246: - C12 - C13 - C14 - C15 - C16 - C17 >= -1
 R247: - C18 - C19 - C20 - C21 - C22 - C23 >= -0
 R248: - C24 - C25 - C26 - C27 - C28 - C29 >= -0
 R249: - C30 - C31 - C32 - C33 - C34 - C35 >= -1
 R250: - C36 - C37 - C38 - C39 - C40 - C41 >= -1
 R251: - C42 - C43 - C44 - C45 - C46 - C47 >= -1
 R252: - C48 - C49 - C50 - C51 - C52 - C53 >= -1
 R253: - C54 - C55 - C56 - C57 - C58 - C59 >= -0
 R254: - C60 - C61 - C62 - C63 - C64 - C65 >= -0
 R255: - C66 - C67 - C68 - C69 - C70 - C71 >= -1
 R256: - C72 - C73 - C74 - C75 - C76 - C77 >= -1
 R257: - C78 - C79 - C80 - C81 - C82 - C83 >= -0
 R258: - C84 - C85 - C86 - C87 - C88 - C89 >= -1
 R259: - C90 - C91 - C92 - C93 - C94 - C95 >= -0
 R260: - C96 - C97 - C98 - C99 - C100 - C101 >= -0
 R261: - C102 - C103 - C104 - C105 - C106 - C107 >= -1
Bounds
Binaries
 C0 C1 C2 C3 C4 C5 C6 C7 C8 C9 C10 C11 C12 C13 C14 C15 C16 C17 C18 C19 C20
 C21 C22 C23 C24 C25 C26 C27 C28 C29 C30 C31 C32 C33 C34 C35 C36 C37 C38
 C39 C40 C41 C42 C43 C44 C45 C46 C47 C48 C49 C50 C51 C52 C53 C54 C55 C56
 C57 C58 C59 C60 C61 C62 C63 C64 C65 C66 C67 C68 C69 C70 C71 C72 C73 C74
 C75 C76 C77 C78 C79 C80 C81 C82 C83 C84 C85 C86 C87 C88 C89 C90 C91 C92
 C93 C94 C95 C96 C97 C98 C99 C100 C101 C102 C103 C104 C105 C106 C107
End
